xclingo version 2.0b16
Reading from /bin/text2ALM/Master/LogicPrograms/countingC/countingCNarrative3.tp.lp /bin/text2ALM/Master/Queries/query3.lp trace-rule.lp
*** ERROR: (xclingo, explainer program) too many messages.
